SystemLabel   LDA-U4.0-ls
NumberOfAtoms   21
NumberOfSpecies   3
LatticeConstant   1.0 Ang
%block LatticeVectors
    10.22450100      0.00000000      0.00000000
    -5.11225050      8.85467348      0.00000000
     0.00000000      0.00000000     21.26205432
%endblock LatticeVectors

AtomicCoordinatesFormat   Ang
%block ChemicalSpeciesLabel
  1    6   C
  2    1   H
  3   26   Fe
%endblock ChemicalSpeciesLabel

%block AtomicCoordinatesAndAtomicSpecies
     1.89468575      3.61007676     12.38502126   1
     3.21959750      5.24499287      8.87078174   1
     1.53888534      4.99533171     12.31120487   1
     2.74468249      5.75515338     12.17225722   1
     3.57455174      3.85971164      8.94318937   1
     2.36810269      3.10003792      9.07579347   1
     1.79367872      5.34156135      8.95821188   1
     1.26740295      4.01588952      9.08509853   1
     3.32038884      3.51405357     12.29179689   1
     3.84555120      4.83964808     12.16013294   1
     1.19078236      2.76181372     12.47025267   2
     3.92445035      6.09297864      8.79180165   2
     0.51214367      5.40453066     12.32964362   2
     2.81173790      6.85325262     12.06193652   2
     4.60155044      3.45091481      8.93002575   2
     2.30085772      2.00142086      9.18171611   2
     1.20455837      6.27726211      8.95675694   2
     0.20076622      3.74877803      9.19878690   2
     3.91057125      2.57913588     12.29133068   2
     4.91109514      5.10656944     12.03769531   2
     2.55433822      4.42658384     10.62608979   3
%endblock AtomicCoordinatesAndAtomicSpecies

PAO.BasisSize   DZP
PAO.EnergyShift   50 meV
Mesh.Cutoff   200 Ry
WriteMullikenPop   1
WriteCoorXmol   true
SCF.Mixer.Weight   0.01
SCF.Mixer.History   7
SCF.DM.Tolerance   0.0001
SCF.H.Converge   true
SCF.H.Tolerance   1.0 meV
MaxSCFIterations   2000
DM.UseSaveDM   true
OccupationFunction   MP
OccupationMPOrder   4
ElectronicTemperature   1000 K
XC.Functional   LDA
XC.Authors   PZ

%block ProjectedDensityOfStates
  -20.00  10.00  0.172  3000  eV
%endblock ProjectedDensityOfStates

%block DFTU.Proj
  Fe  1
  n=3  2
  4.00  0.0
  0.0  0.0
%endblock DFTU.Proj

