Ga  N 
 1.0000000000000000
     3.2180000000000000    0.0000000000000000    0.0000000000000000
    -1.6089999999999995    2.7868697493783237    0.0000000000000000
     0.0000000000000000    0.0000000000000000   40.0000000000000000
 Ga  N  
   1   1
Cartesian
  0.0000000000000000  0.0000000000000000 20.0000000000000000
  0.0000000000000004  1.8579131662522157 20.0000000000000000
