SystemLabel   silicon
NumberOfAtoms   2
NumberOfSpecies   1
LatticeConstant   1.0 Ang
%block LatticeVectors
     0.00000000      2.71500000      2.71500000
     2.71500000      0.00000000      2.71500000
     2.71500000      2.71500000      0.00000000
%endblock LatticeVectors

AtomicCoordinatesFormat   Ang
%block ChemicalSpeciesLabel
  1   14   Si
%endblock ChemicalSpeciesLabel

%block AtomicCoordinatesAndAtomicSpecies
     0.00000000      0.00000000      0.00000000   1
     1.35750000      1.35750000      1.35750000   1
%endblock AtomicCoordinatesAndAtomicSpecies

PAO.BasisSize   DZP
PAO.EnergyShift   50 meV
Mesh.Cutoff   200 Ry
WriteMullikenPop   1
MullikenInSCF   false
WriteCoorXmol   true
SCF.Mixer.Weight   0.01
SCF.Mixer.History   5
SCF.Mixer.Kick   0
SCF.DM.Tolerance   0.0001
SCF.H.Converge   true
SCF.H.Tolerance   1.0 meV
MaxSCFIterations   2000
DM.UseSaveDM   true
OccupationFunction   MP
OccupationMPOrder   4
ElectronicTemperature   1000 K
NetCharge   0
Slab.DipoleCorrection   false
XC.Functional   GGA
XC.Authors   PBE
Spin   non-polarized
Spin.Fix   false
Spin.Total   0

%block kgrid_Monkhorst_Pack
  9   0   0   0.0
  0   9   0   0.0
  0   0   9   0.0
%endblock kgrid_Monkhorst_Pack
