SystemLabel   siesta
NumberOfAtoms   2
NumberOfSpecies   2
LatticeConstant   1.0 Ang
%block LatticeVectors
     3.21800000      0.00000000      0.00000000
    -1.60900000      2.78686975      0.00000000
     0.00000000      0.00000000     40.00000000
%endblock LatticeVectors

AtomicCoordinatesFormat   Ang
%block ChemicalSpeciesLabel
  1   31   Ga
  2    7   N
%endblock ChemicalSpeciesLabel

%block AtomicCoordinatesAndAtomicSpecies
     0.00000000      0.00000000     20.00000000   1
     0.00000000      1.85791317     20.00000000   2
%endblock AtomicCoordinatesAndAtomicSpecies

PAO.BasisSize   DZP
PAO.EnergyShift   50 meV
Mesh.Cutoff   200 Ry
WriteMullikenPop   1
MullikenInSCF   false
WriteCoorXmol   true
SCF.Mixer.Weight   0.01
SCF.Mixer.History   5
SCF.Mixer.Kick   0
SCF.DM.Tolerance   0.0001
SCF.H.Converge   true
SCF.H.Tolerance   1.0 meV
MaxSCFIterations   2000
DM.UseSaveDM   true
OccupationFunction   MP
OccupationMPOrder   4
ElectronicTemperature   1000 K
NetCharge   0
Slab.DipoleCorrection   false
XC.Functional   GGA
XC.Authors   PW91

%block kgrid_Monkhorst_Pack
    30    0    0   0.0
     0   30    0   0.0
     0    0   30   0.0
%endblock kgrid_Monkhorst_Pack
